ROUTE 0: 23 41 115 61 92 77 125 152 43 129 118 143 42 119 191 184 112 200 145 102 60 75 69 186 196 124 156 7 187 24 136 173 5 57 22 78 181 86 183 99
ROUTE 1: 131 179 62 74 190 36 192 33 94 149 134 108 188 177 97 35 28 162 117 137 81 175 172 37 140 139 29 88 103 9 19 65 47 116 56 158 34 82 63 3 4 165 2 104 106 76 182 100 54 110 135 109 12 87 113 25 70 163 148
ROUTE 2: 80 18 67 96 138 38 107 122 194 128 95 13 32 114 68 21 6 40 27 193 159 146 127 44 197 167 178 48 101 71 185 31 132 195 160 147 15 155 59 1 51 120 49 72 39 199 52 144 111
ROUTE 3: 168 55 151 45 8 150 58 166 157 90 26 50 84 141 161 11 64 66 142 123 10 130 198 93 105 91 126 79 17 133 89 174 16 85 176 14 98 46 121 189 20 30 170 83 180 153 73 169 154 53 171 164
FINAL_COST: 1850.10
